Version identifier: 12.10.0.0 | 2019-11-26 | 843d4de
CPXPARAM_WorkMem                                 28672
Tried aggregator 2 times.
MIP Presolve modified 180 coefficients.
Aggregator did 20 substitutions.
Reduced MIP has 115 rows, 150 columns, and 545 nonzeros.
Reduced MIP has 150 binaries, 0 generals, 0 SOSs, and 0 indicators.
Presolve time = 0,00 sec. (0,78 ticks)
Found incumbent of value 92,000000 after 0,01 sec. (2,71 ticks)
Probing time = 0,00 sec. (0,21 ticks)
Tried aggregator 1 time.
Detecting symmetries...
MIP Presolve eliminated 15 rows and 0 columns.
MIP Presolve added 30 rows and 0 columns.
Reduced MIP has 130 rows, 150 columns, and 560 nonzeros.
Reduced MIP has 150 binaries, 0 generals, 0 SOSs, and 0 indicators.
Presolve time = 0,00 sec. (0,69 ticks)
Probing time = 0,00 sec. (0,21 ticks)
Clique table members: 320.
MIP emphasis: balance optimality and feasibility.
MIP search method: dynamic search.
Parallel mode: deterministic, using up to 16 threads.
Root relaxation solution time = 0,00 sec. (1,23 ticks)

        Nodes                                         Cuts/
   Node  Left     Objective  IInf  Best Integer    Best Bound    ItCnt     Gap

*     0+    0                           92,0000        0,0000           100,00%
*     0+    0                           52,0000        0,0000           100,00%
      0     0       33,8833    47       52,0000       33,8833      131   34,84%
      0     0       34,4638    47       52,0000     Cuts: 105      213   33,72%
      0     0       37,1464    47       52,0000     Cuts: 132      316   28,56%
      0     0       38,3607    47       52,0000      Cuts: 97      418   26,23%
      0     0       38,7504    47       52,0000      Cuts: 63      474   25,48%
      0     0       39,0000    47       52,0000      Cuts: 35      527   25,00%

Repeating presolve.
Tried aggregator 2 times.
MIP Presolve eliminated 94 rows and 66 columns.
MIP Presolve added 34 rows and 0 columns.
MIP Presolve modified 93 coefficients.
Aggregator did 13 substitutions.
Reduced MIP has 57 rows, 54 columns, and 162 nonzeros.
Reduced MIP has 54 binaries, 0 generals, 0 SOSs, and 0 indicators.
Presolve time = 0,00 sec. (0,46 ticks)
Probing time = 0,00 sec. (0,04 ticks)
Tried aggregator 1 time.
MIP Presolve eliminated 1 rows and 0 columns.
Reduced MIP has 56 rows, 53 columns, and 159 nonzeros.
Reduced MIP has 53 binaries, 0 generals, 0 SOSs, and 0 indicators.
Presolve time = 0,00 sec. (0,10 ticks)
Probing time = 0,00 sec. (0,04 ticks)
Tried aggregator 1 time.
Detecting symmetries...
Reduced MIP has 56 rows, 53 columns, and 159 nonzeros.
Reduced MIP has 53 binaries, 0 generals, 0 SOSs, and 0 indicators.
Presolve time = 0,00 sec. (0,13 ticks)
Represolve time = 0,00 sec. (1,58 ticks)
Probing time = 0,00 sec. (0,04 ticks)
Clique table members: 84.
MIP emphasis: balance optimality and feasibility.
MIP search method: dynamic search.
Parallel mode: deterministic, using up to 16 threads.
Root relaxation solution time = 0,00 sec. (0,31 ticks)

        Nodes                                         Cuts/
   Node  Left     Objective  IInf  Best Integer    Best Bound    ItCnt     Gap

*     0+    0                           52,0000       39,0000            25,00%
      0     0       50,6667    19       52,0000       50,6667      628    2,56%
      0     0        cutoff             52,0000                    630    0,00%
Elapsed time = 0,10 sec. (29,34 ticks, tree = 0,01 MB, solutions = 2)

GUB cover cuts applied:  3
Clique cuts applied:  7
Cover cuts applied:  8
Mixed integer rounding cuts applied:  4
Zero-half cuts applied:  7

Root node processing (before b&c):
  Real time             =    0,10 sec. (29,34 ticks)
Parallel b&c, 16 threads:
  Real time             =    0,00 sec. (0,00 ticks)
  Sync time (average)   =    0,00 sec.
  Wait time (average)   =    0,00 sec.
                          ------------
Total (root+branch&cut) =    0,10 sec. (29,34 ticks)
